(declare-fun e () String)
(declare-fun g () String)
(declare-fun b () String)
(declare-fun d () String)
(declare-fun a () String)
(declare-fun h () String)
(assert (= (str.++ d "h" a a "c") b))
(assert (= (str.++ "a" e) (str.++ h b "dc")))
(assert (= g d))

(check-sat)
